NAME : X1
COMMENT : 48 capitals of the US (Padberg/Rinaldi)
TYPE : TSP
DIMENSION : 48
EDGE_WEIGHT_TYPE : ATT
NODE_COORD_SECTION
1	753	1396
2	1144 1441
3	1451 1239
4	538	517
5	1102 330
6	1294 1098
7	542	1001
8	440	1436
9	411	570
10	90	473
11	747	180
12	458	326
13	598	1219
14	255	796
15	1487 46
16	1089 124
17	767	323
18	1083 1261
19	700	154
20	115	1464
21	1318 1027
22	1327 15
23	43	621
24	193	623
25	673	724
26	458	1219
27	996	278
28	1249 1373
29	60	1371
30	483	1357
31	258	1381
32	531	750
33	69	920
34	80	264
35	903	1046
36	1254 564
37	1087 262
38	1275 746
39	1371 95
40	374	608
41	1408 1082
42	1174 1255
43	705	435
44	774	243
45	269	627
46	1431 590
47	904	1312
48	755	381
EOF